100 500 200 500 10 100
83 288
70 219
78 403
26 459
24 375
83 278
71 236
25 487
31 294
74 443
89 270
72 267
60 251
33 221
50 397
28 391
43 500
63 404
23 252
61 323
58 464
28 303
42 433
99 471
28 456
82 415
26 484
92 446
74 335
11 233
10 338
63 415
71 282
17 489
58 379
75 461
64 462
14 291
36 251
21 370
92 424
41 431
100 215
11 290
63 292
51 228
86 496
22 215
46 461
93 310
87 264
26 431
24 232
100 318
87 231
75 239
68 471
49 261
91 243
94 483
70 423
32 463
65 404
27 444
27 431
58 202
40 222
71 368
58 403
21 338
45 372
39 288
54 494
32 476
45 449
13 270
77 470
22 237
32 210
96 486
11 433
70 334
81 370
66 209
64 437
90 405
79 371
27 400
23 341
83 350
83 283
25 358
37 452
54 374
83 325
25 302
55 244
42 212
25 387
82 385
